SECTION GRAPH
NODES 4
EDGES 5
E 1 2 4
E 1 3 2
E 2 3 2
E 2 4 10
E 3 4 2
END

SECTION Terminals
Terminals 2
T 2
T 4
END

SECTION Tree Decomposition
s td 3 2 4
b 1 2 3
b 3 1 3 2
b 2 2 3 4
1 3
1 2
END
EOF 

// Outerplanar
// Answer: 4